
Gurobi 10.0.1 (linux64) logging started Sun Nov 26 15:39:55 2023

Set parameter LogFile to value "ArtificialInstance/ExperimentV2/S4T4K1/AdRo/gurobiDoRo16.txt"
Gurobi Optimizer version 10.0.1 build v10.0.1rc0 (linux64)

CPU model: AMD EPYC 7H12 64-Core Processor, instruction set [SSE2|AVX|AVX2]
Thread count: 128 physical cores, 128 logical processors, using up to 32 threads

Academic license 656792 - for non-commercial use only - registered to b.___@student.vu.nl
Optimize a model with 4739 rows, 4406 columns and 17453 nonzeros
Model fingerprint: 0xb602d1fa
Variable types: 1 continuous, 4405 integer (4405 binary)
Coefficient statistics:
  Matrix range     [1e+00, 4e+01]
  Objective range  [1e+00, 2e+01]
  Bounds range     [1e+00, 1e+00]
  RHS range        [1e+00, 1e+00]
Presolve removed 1669 rows and 1292 columns
Presolve time: 0.06s
Presolved: 3070 rows, 3114 columns, 12193 nonzeros
Variable types: 1 continuous, 3113 integer (3113 binary)
Found heuristic solution: objective 80.0236998

Root relaxation: objective 6.825537e+01, 939 iterations, 0.02 seconds (0.01 work units)

    Nodes    |    Current Node    |     Objective Bounds      |     Work
 Expl Unexpl |  Obj  Depth IntInf | Incumbent    BestBd   Gap | It/Node Time

H    0     0                      68.2553717   36.19641  47.0%     -    0s
     0     0          -    0        68.25537   68.25537  0.00%     -    0s

Explored 1 nodes (1317 simplex iterations) in 0.11 seconds (0.08 work units)
Thread count was 32 (of 128 available processors)

Solution count 2: 68.2554 80.0237 

Optimal solution found (tolerance 1.00e-04)
Best objective 6.825537174074e+01, best bound 6.825537174074e+01, gap 0.0000%
